
n_res = 8;
rcap = [27, 26, 30, 28, 1382, 1382, 1352, 1324];
rtype = [1, 1, 1, 1, 2, 2, 2, 2];
n_tasks = 100;
modes =  [{1, 2, 3}, {4, 5, 6}, {7, 8, 9}, {10, 11, 12}, {13, 14, 15}, {16, 17, 18}, {19, 20, 21}, {22, 23, 24}, {25, 26, 27}, {28, 29, 30}, {31, 32, 33}, {34, 35, 36}, {37, 38, 39}, {40, 41, 42}, {43, 44, 45}, {46, 47, 48}, {49, 50, 51}, {52, 53, 54}, {55, 56, 57}, {58, 59, 60}, {61, 62, 63}, {64, 65, 66}, {67, 68, 69}, {70, 71, 72}, {73, 74, 75}, {76, 77, 78}, {79, 80, 81}, {82, 83, 84}, {85, 86, 87}, {88, 89, 90}, {91, 92, 93}, {94, 95, 96}, {97, 98, 99}, {100, 101, 102}, {103, 104, 105}, {106, 107, 108}, {109, 110, 111}, {112, 113, 114}, {115, 116, 117}, {118, 119, 120}, {121, 122, 123}, {124, 125, 126}, {127, 128, 129}, {130, 131, 132}, {133, 134, 135}, {136, 137, 138}, {139, 140, 141}, {142, 143, 144}, {145, 146, 147}, {148, 149, 150}, {151, 152, 153}, {154, 155, 156}, {157, 158, 159}, {160, 161, 162}, {163, 164, 165}, {166, 167, 168}, {169, 170, 171}, {172, 173, 174}, {175, 176, 177}, {178, 179, 180}, {181, 182, 183}, {184, 185, 186}, {187, 188, 189}, {190, 191, 192}, {193, 194, 195}, {196, 197, 198}, {199, 200, 201}, {202, 203, 204}, {205, 206, 207}, {208, 209, 210}, {211, 212, 213}, {214, 215, 216}, {217, 218, 219}, {220, 221, 222}, {223, 224, 225}, {226, 227, 228}, {229, 230, 231}, {232, 233, 234}, {235, 236, 237}, {238, 239, 240}, {241, 242, 243}, {244, 245, 246}, {247, 248, 249}, {250, 251, 252}, {253, 254, 255}, {256, 257, 258}, {259, 260, 261}, {262, 263, 264}, {265, 266, 267}, {268, 269, 270}, {271, 272, 273}, {274, 275, 276}, {277, 278, 279}, {280, 281, 282}, {283, 284, 285}, {286, 287, 288}, {289, 290, 291}, {292, 293, 294}, {295, 296, 297}, {298, 299, 300}];
succ =  [{99, 95, 76, 75, 54, 52, 49, 48, 46, 43, 42, 41, 36, 34, 30, 18}, {100, 98, 75, 73, 72, 60, 58, 57, 56, 55, 54, 45, 42, 40, 36, 23, 21}, {100, 98, 76, 75, 73, 72, 71, 70, 69, 68, 67, 61, 60, 58, 57, 52, 47, 46, 45, 44, 43, 42, 39, 37}, {100, 97, 73, 67, 60, 56, 55, 54, 52, 51, 46, 41, 11}, {100, 98, 75, 68, 67, 66, 65, 61, 58, 57, 56, 55, 51, 48, 42, 39, 38, 32}, {100, 99, 96, 95, 94, 92, 83, 75, 70, 69, 68, 67, 66, 65, 63, 58, 55, 52, 48, 43, 39}, {100, 98, 97, 88, 76, 75, 73, 68, 67, 66, 65, 64, 59, 55, 46, 44, 41}, {99, 98, 96, 93, 88, 87, 83, 73, 70, 69, 68, 66, 64, 58, 56, 40, 39}, {91, 88, 70, 67, 61, 57, 55, 40, 37, 34}, {100, 99, 97, 94, 92, 88, 86, 83, 72, 71, 68, 66, 65, 63, 58, 56, 55, 39}, {99, 98, 96, 95, 91, 90, 86, 84, 72, 70, 64, 58, 57, 45, 42, 36}, {100, 95, 94, 91, 90, 72, 71, 67, 61, 59, 54, 40, 36}, {100, 99, 98, 97, 96, 94, 93, 92, 91, 88, 86, 83, 74, 72, 71, 69, 67, 65, 64, 63, 60, 58, 56}, {100, 99, 98, 97, 96, 95, 93, 92, 88, 87, 86, 83, 82, 68, 66, 64, 63, 60, 39}, {96, 87, 68, 59, 54, 52, 45, 44, 42, 37}, {100, 97, 96, 95, 93, 91, 88, 87, 86, 83, 73, 71, 69, 65, 64, 59, 54, 42}, {99, 98, 97, 94, 93, 91, 88, 86, 83, 76, 69, 68, 67, 65, 59, 54, 51}, {98, 94, 93, 91, 89, 88, 83, 73, 68, 67, 66, 64, 58, 55, 40}, {100, 98, 96, 93, 86, 85, 83, 71, 69, 68, 67, 66, 64, 56, 54, 52}, {96, 92, 89, 72, 69, 68, 63, 61, 58, 56, 43}, {96, 93, 92, 91, 85, 84, 83, 71, 70, 69, 68, 67, 66, 65, 64, 62, 52}, {96, 91, 90, 84, 67, 57, 45, 36}, {99, 97, 95, 94, 93, 92, 91, 90, 87, 86, 85, 84, 83, 81, 80, 79, 71, 70, 65, 62}, {99, 98, 94, 90, 88, 86, 83, 81, 79, 72, 71, 70, 67, 63, 54}, {99, 95, 92, 91, 90, 83, 82, 81, 71, 70, 69, 64, 63, 59, 54}, {100, 99, 94, 93, 92, 90, 88, 86, 85, 84, 83, 81, 80, 70, 66, 65, 64, 62}, {98, 91, 88, 86, 83, 73, 70, 64, 54, 42}, {98, 97, 96, 94, 88, 86, 84, 83, 82, 81, 79, 78, 77, 68, 67, 59}, {98, 97, 95, 93, 92, 89, 88, 83, 82, 81, 80, 78, 67, 66, 58}, {100, 93, 89, 87, 86, 83, 82, 81, 71, 70, 69, 64, 62, 59}, {100, 99, 91, 88, 87, 86, 85, 79, 54, 48}, {99, 97, 95, 94, 93, 92, 87, 86, 83, 82, 78, 69, 52}, {96, 92, 88, 85, 84, 83, 81, 78, 76, 69, 65, 62}, {96, 94, 93, 89, 87, 85, 83, 81, 80, 79, 78, 68, 62}, {91, 90, 89, 86, 85, 83, 81, 80, 63, 62, 60}, {92, 88, 85, 83, 81, 74, 66, 65, 63, 62}, {97, 95, 92, 86, 85, 83, 81, 80, 78, 77, 64}, {96, 94, 93, 92, 87, 85, 84, 83, 78, 71, 62}, {91, 90, 81, 78, 59, 54}, {86, 85, 84, 80, 79, 77, 65, 63}, {93, 91, 87, 86, 84, 79, 78, 77}, {94, 89, 85, 82, 80, 77, 63}, {97, 91, 88, 86, 81, 80, 64}, {95, 94, 91, 83, 82, 79, 63}, {83, 82, 66, 63, 62}, {90, 89, 86, 84, 82, 81, 80}, {97, 96, 86, 81, 80, 79, 78}, {84, 81, 80, 78, 77, 72}, {92, 87, 84, 83, 81, 77}, {98, 92, 87, 79, 78, 77}, {90, 81, 79, 77, 63}, {88, 81, 80, 79, 77}, {83, 80, 79, 78, 77}, {89, 84, 80, 62}, {87, 82, 80, 78}, {95, 84, 78, 77}, {89, 59}, {79, 62}, {85, 80}, {79, 78}, {93, 77}, {77}, {78}, {79}, {82}, {79}, {87}, {90}, {80}, {78}, {77}, {82}, {81}, {77}, {77}, {79}, {}, {}, {}, {}, {}, {}, {}, {}, {}, {}, {}, {}, {}, {}, {}, {}, {}, {}, {}, {}, {}, {}, {}, {}];
n_opt = 300;
dur = [2, 5, 20, 2, 19, 30, 4, 6, 10, 14, 16, 30, 9, 12, 29, 2, 4, 20, 12, 14, 22, 13, 14, 21, 11, 14, 15, 7, 17, 30, 7, 11, 13, 3, 17, 25, 6, 13, 17, 22, 23, 30, 1, 8, 15, 2, 13, 23, 15, 19, 24, 22, 25, 26, 14, 27, 28, 14, 19, 26, 9, 15, 19, 15, 16, 25, 7, 13, 26, 17, 18, 24, 8, 22, 23, 11, 24, 30, 2, 23, 30, 2, 23, 30, 2, 19, 28, 1, 13, 22, 4, 8, 18, 3, 12, 26, 26, 28, 30, 1, 23, 25, 18, 28, 30, 5, 7, 21, 4, 12, 27, 7, 8, 10, 1, 13, 22, 18, 26, 29, 27, 28, 29, 8, 23, 24, 19, 23, 24, 2, 8, 25, 12, 19, 22, 20, 25, 27, 10, 26, 27, 1, 18, 30, 3, 7, 22, 7, 10, 18, 5, 10, 28, 4, 18, 19, 14, 23, 28, 2, 26, 27, 6, 14, 30, 8, 19, 26, 16, 25, 26, 6, 8, 14, 6, 10, 14, 8, 9, 15, 10, 19, 25, 18, 28, 29, 22, 23, 26, 3, 4, 30, 1, 17, 20, 1, 8, 9, 8, 20, 25, 6, 8, 10, 12, 23, 25, 6, 25, 28, 21, 27, 28, 12, 15, 20, 18, 20, 29, 4, 20, 23, 5, 6, 8, 8, 10, 19, 3, 10, 19, 2, 25, 26, 7, 14, 17, 5, 9, 10, 19, 21, 22, 3, 12, 16, 3, 24, 29, 17, 18, 21, 15, 22, 30, 1, 2, 21, 3, 13, 29, 6, 19, 20, 11, 19, 26, 5, 14, 29, 9, 12, 14, 2, 3, 20, 3, 6, 16, 21, 26, 27, 16, 22, 29, 15, 24, 30, 4, 14, 19, 13, 17, 30, 1, 14, 21, 3, 14, 27];
rreq = [|3, 2, 2, 2, 1, 1, 4, 2, 2, 4, 4, 2, 3, 2, 2, 3, 3, 3, 5, 5, 5, 1, 1, 1, 4, 4, 2, 2, 2, 2, 3, 2, 1, 4, 3, 3, 4, 3, 3, 4, 4, 4, 1, 1, 1, 5, 3, 2, 4, 2, 2, 4, 4, 4, 4, 3, 3, 3, 3, 2, 3, 1, 1, 4, 4, 4, 5, 3, 3, 3, 3, 2, 2, 1, 1, 3, 2, 2, 4, 4, 4, 1, 1, 1, 1, 1, 1, 4, 3, 3, 3, 3, 1, 5, 4, 3, 4, 3, 3, 3, 3, 3, 5, 4, 4, 2, 1, 1, 3, 3, 3, 4, 4, 3, 5, 5, 5, 3, 3, 3, 4, 4, 4, 4, 4, 2, 4, 4, 4, 3, 2, 2, 2, 2, 2, 3, 3, 3, 5, 4, 3, 2, 2, 2, 3, 3, 3, 4, 3, 1, 5, 3, 3, 2, 2, 2, 2, 2, 2, 3, 3, 3, 2, 1, 1, 2, 2, 2, 1, 1, 1, 4, 2, 1, 4, 4, 4, 2, 1, 1, 4, 3, 2, 4, 2, 2, 4, 3, 2, 3, 3, 3, 4, 3, 3, 4, 3, 3, 1, 1, 1, 5, 5, 5, 2, 2, 2, 2, 2, 2, 2, 2, 2, 5, 4, 3, 5, 3, 3, 4, 2, 1, 2, 2, 2, 4, 4, 4, 4, 2, 2, 3, 3, 3, 4, 3, 2, 4, 3, 3, 4, 4, 4, 2, 1, 1, 5, 3, 1, 3, 2, 1, 4, 3, 3, 2, 1, 1, 2, 2, 1, 2, 2, 1, 2, 1, 1, 1, 1, 1, 3, 1, 1, 5, 2, 2, 3, 3, 3, 5, 4, 4, 2, 1, 1, 3, 2, 2, 2, 2, 2, 4, 3, 3, 1, 1, 1, 2, 2, 2
 |5, 3, 2, 4, 3, 3, 3, 2, 2, 2, 2, 1, 2, 2, 2, 3, 2, 2, 4, 4, 4, 2, 2, 1, 5, 5, 5, 4, 4, 4, 4, 3, 2, 3, 3, 3, 4, 3, 3, 4, 4, 4, 3, 2, 1, 3, 2, 2, 1, 1, 1, 2, 2, 1, 1, 1, 1, 4, 4, 4, 3, 3, 3, 4, 4, 4, 4, 4, 4, 5, 3, 2, 3, 3, 3, 3, 3, 3, 3, 2, 2, 4, 4, 4, 1, 1, 1, 4, 2, 2, 1, 1, 1, 3, 3, 3, 2, 1, 1, 3, 3, 3, 2, 2, 2, 5, 3, 3, 5, 3, 2, 2, 1, 1, 3, 2, 2, 3, 2, 2, 4, 2, 2, 4, 3, 3, 5, 3, 3, 4, 3, 1, 3, 3, 3, 4, 4, 3, 3, 2, 1, 3, 3, 3, 3, 3, 1, 1, 1, 1, 2, 1, 1, 5, 4, 3, 3, 2, 1, 5, 3, 2, 4, 4, 4, 5, 3, 3, 2, 1, 1, 5, 4, 4, 3, 3, 1, 3, 1, 1, 4, 3, 1, 3, 3, 1, 4, 2, 2, 2, 2, 1, 1, 1, 1, 4, 4, 3, 3, 3, 3, 4, 3, 3, 4, 3, 1, 4, 3, 3, 4, 3, 3, 3, 2, 2, 4, 4, 2, 5, 4, 3, 4, 3, 2, 4, 3, 3, 2, 2, 2, 4, 2, 2, 4, 4, 4, 4, 3, 2, 3, 3, 3, 3, 3, 3, 4, 4, 3, 2, 2, 2, 5, 4, 3, 4, 3, 1, 2, 2, 2, 3, 2, 1, 5, 4, 3, 3, 2, 2, 4, 3, 2, 4, 4, 4, 2, 2, 2, 2, 1, 1, 3, 3, 3, 1, 1, 1, 4, 4, 4, 4, 2, 1, 4, 4, 4, 4, 3, 2
 |1, 1, 1, 4, 4, 4, 4, 4, 4, 4, 4, 4, 4, 4, 4, 5, 5, 5, 3, 2, 1, 4, 4, 3, 2, 2, 2, 5, 3, 2, 4, 4, 3, 4, 3, 3, 3, 3, 2, 2, 2, 2, 1, 1, 1, 3, 2, 2, 3, 2, 1, 5, 4, 4, 5, 4, 4, 5, 4, 4, 5, 4, 4, 4, 3, 1, 3, 3, 3, 5, 4, 3, 4, 4, 4, 5, 4, 4, 2, 2, 2, 4, 2, 2, 3, 2, 1, 4, 4, 4, 4, 4, 4, 2, 2, 2, 3, 1, 1, 2, 2, 2, 4, 3, 3, 2, 1, 1, 4, 4, 4, 4, 4, 4, 2, 1, 1, 2, 1, 1, 4, 3, 2, 5, 4, 4, 4, 4, 4, 2, 1, 1, 3, 3, 2, 4, 4, 4, 3, 3, 2, 5, 3, 2, 5, 3, 2, 3, 2, 1, 3, 3, 2, 2, 2, 2, 2, 2, 2, 2, 2, 2, 4, 3, 2, 5, 3, 3, 5, 3, 3, 3, 2, 1, 2, 1, 1, 3, 2, 2, 2, 2, 2, 1, 1, 1, 2, 2, 2, 3, 2, 2, 5, 3, 2, 2, 1, 1, 1, 1, 1, 5, 5, 5, 3, 3, 3, 4, 4, 2, 4, 3, 3, 1, 1, 1, 4, 2, 2, 5, 5, 5, 4, 3, 3, 5, 4, 4, 1, 1, 1, 4, 4, 4, 3, 2, 2, 5, 3, 2, 1, 1, 1, 4, 4, 3, 4, 3, 3, 5, 4, 4, 2, 2, 1, 3, 2, 2, 3, 3, 3, 4, 4, 4, 4, 3, 3, 2, 2, 2, 4, 3, 1, 2, 2, 2, 3, 3, 2, 4, 3, 3, 2, 1, 1, 3, 2, 1, 2, 1, 1, 4, 4, 4, 3, 3, 3, 5, 4, 3
 |4, 3, 2, 2, 2, 2, 4, 4, 2, 1, 1, 1, 4, 4, 4, 4, 4, 4, 4, 3, 2, 3, 3, 2, 2, 1, 1, 5, 4, 4, 4, 3, 2, 4, 4, 4, 5, 3, 3, 5, 4, 3, 2, 1, 1, 5, 4, 2, 3, 3, 1, 3, 2, 2, 2, 2, 2, 5, 5, 5, 3, 3, 1, 1, 1, 1, 5, 4, 4, 4, 4, 3, 3, 3, 2, 4, 2, 2, 4, 2, 2, 1, 1, 1, 3, 2, 2, 3, 2, 2, 3, 2, 2, 5, 3, 2, 4, 2, 2, 5, 4, 4, 4, 4, 4, 3, 3, 3, 3, 3, 3, 5, 4, 4, 1, 1, 1, 5, 4, 4, 3, 2, 1, 2, 2, 2, 3, 3, 3, 1, 1, 1, 5, 5, 5, 3, 3, 3, 4, 3, 3, 4, 3, 2, 1, 1, 1, 1, 1, 1, 2, 2, 2, 3, 3, 3, 3, 2, 1, 5, 4, 3, 4, 4, 4, 3, 2, 1, 4, 4, 4, 3, 2, 2, 4, 4, 3, 1, 1, 1, 3, 2, 2, 3, 3, 3, 5, 4, 3, 2, 2, 2, 5, 4, 4, 2, 1, 1, 4, 4, 4, 5, 2, 1, 3, 2, 2, 4, 2, 2, 3, 3, 3, 3, 3, 1, 5, 4, 4, 1, 1, 1, 5, 4, 3, 3, 3, 3, 4, 3, 2, 3, 1, 1, 5, 4, 4, 5, 5, 5, 3, 2, 1, 3, 3, 3, 3, 3, 2, 2, 2, 2, 3, 3, 1, 3, 2, 2, 4, 2, 1, 5, 4, 3, 3, 1, 1, 1, 1, 1, 5, 3, 3, 3, 3, 3, 1, 1, 1, 5, 2, 2, 4, 3, 3, 5, 5, 5, 5, 4, 4, 2, 2, 2, 2, 2, 2, 1, 1, 1
 |17, 16, 14, 14, 13, 8, 18, 12, 4, 17, 17, 12, 11, 8, 8, 27, 20, 8, 12, 10, 6, 21, 16, 11, 7, 5, 5, 25, 16, 6, 10, 4, 3, 25, 23, 22, 11, 10, 10, 23, 17, 9, 25, 21, 13, 28, 16, 12, 22, 19, 17, 24, 22, 9, 27, 19, 8, 23, 20, 11, 22, 19, 12, 20, 18, 11, 27, 24, 24, 21, 17, 4, 29, 12, 10, 20, 17, 13, 16, 13, 8, 27, 18, 12, 14, 9, 8, 21, 20, 19, 26, 22, 18, 24, 24, 24, 12, 12, 12, 25, 23, 17, 25, 24, 24, 22, 14, 13, 9, 8, 6, 18, 16, 12, 24, 24, 24, 13, 12, 7, 17, 16, 16, 22, 13, 11, 26, 16, 10, 21, 19, 17, 13, 11, 11, 23, 17, 15, 23, 19, 15, 14, 10, 6, 7, 5, 5, 15, 10, 8, 25, 24, 23, 25, 25, 22, 23, 20, 10, 26, 19, 11, 23, 22, 21, 7, 7, 4, 22, 16, 13, 22, 21, 20, 9, 8, 6, 18, 18, 15, 17, 8, 3, 24, 24, 23, 18, 9, 8, 24, 16, 15, 16, 14, 11, 22, 22, 14, 13, 10, 4, 23, 21, 14, 18, 18, 18, 24, 15, 5, 15, 15, 15, 21, 13, 7, 18, 9, 7, 25, 25, 18, 22, 10, 5, 11, 11, 7, 21, 20, 14, 25, 20, 11, 21, 15, 13, 6, 5, 3, 12, 12, 12, 9, 9, 9, 22, 22, 20, 26, 25, 24, 15, 15, 12, 19, 11, 7, 12, 7, 1, 29, 19, 18, 24, 17, 15, 19, 10, 8, 11, 9, 5, 11, 11, 11, 22, 20, 19, 29, 28, 28, 18, 11, 3, 8, 8, 7, 19, 19, 17, 22, 15, 8, 20, 18, 12, 29, 21, 12
 |17, 9, 6, 27, 23, 19, 17, 14, 11, 23, 19, 13, 13, 7, 5, 26, 23, 16, 6, 4, 3, 22, 14, 2, 26, 12, 10, 11, 8, 5, 24, 24, 23, 25, 19, 17, 25, 20, 16, 14, 10, 9, 22, 21, 20, 6, 4, 3, 20, 15, 13, 25, 19, 13, 19, 16, 7, 27, 25, 25, 23, 23, 22, 19, 11, 2, 22, 17, 9, 17, 9, 7, 10, 9, 7, 12, 9, 3, 26, 18, 17, 20, 12, 4, 15, 8, 2, 10, 5, 5, 21, 16, 11, 20, 12, 7, 24, 13, 3, 28, 27, 21, 24, 23, 22, 15, 8, 1, 17, 16, 14, 21, 15, 12, 27, 23, 18, 4, 4, 3, 24, 23, 21, 22, 17, 13, 18, 16, 10, 13, 13, 13, 23, 19, 14, 15, 14, 11, 17, 16, 16, 23, 17, 14, 27, 24, 24, 23, 19, 19, 22, 21, 20, 19, 13, 7, 14, 10, 9, 21, 16, 9, 7, 4, 2, 27, 24, 24, 24, 15, 10, 25, 21, 17, 25, 23, 23, 25, 24, 20, 19, 15, 12, 9, 9, 9, 25, 21, 19, 29, 29, 28, 15, 11, 6, 10, 9, 9, 13, 12, 10, 12, 12, 12, 24, 22, 10, 19, 19, 11, 18, 17, 17, 24, 21, 21, 10, 8, 7, 18, 13, 1, 20, 18, 15, 22, 16, 11, 11, 10, 9, 26, 25, 24, 19, 18, 14, 16, 14, 9, 8, 7, 4, 27, 25, 25, 19, 18, 17, 25, 16, 16, 8, 4, 3, 21, 19, 16, 18, 15, 11, 25, 17, 8, 12, 7, 7, 21, 17, 16, 24, 17, 14, 21, 17, 8, 26, 22, 16, 16, 9, 2, 22, 15, 11, 16, 10, 9, 11, 4, 4, 11, 9, 6, 24, 21, 20, 19, 18, 15
 |20, 20, 18, 16, 16, 15, 14, 11, 10, 21, 11, 7, 12, 7, 4, 24, 24, 24, 21, 17, 12, 10, 8, 5, 15, 12, 7, 22, 20, 15, 10, 7, 4, 13, 11, 10, 24, 18, 15, 19, 19, 17, 19, 16, 16, 20, 19, 19, 14, 9, 5, 18, 17, 14, 14, 10, 10, 27, 23, 21, 28, 27, 23, 23, 15, 12, 26, 19, 14, 25, 22, 22, 22, 17, 9, 15, 7, 3, 24, 23, 18, 23, 15, 14, 15, 14, 12, 25, 19, 12, 20, 12, 12, 17, 15, 13, 19, 11, 5, 22, 17, 14, 21, 17, 9, 28, 23, 18, 17, 15, 14, 25, 23, 18, 21, 14, 8, 24, 24, 20, 18, 16, 5, 18, 16, 10, 22, 21, 19, 11, 11, 11, 24, 22, 14, 23, 13, 4, 21, 19, 11, 26, 18, 15, 27, 18, 5, 18, 16, 10, 11, 9, 6, 21, 20, 10, 11, 11, 10, 9, 5, 4, 10, 8, 5, 17, 12, 9, 12, 10, 3, 24, 22, 14, 25, 18, 17, 14, 13, 8, 28, 28, 28, 24, 16, 5, 27, 25, 23, 17, 16, 15, 16, 16, 8, 28, 24, 21, 21, 13, 11, 5, 3, 2, 10, 9, 2, 29, 26, 20, 26, 16, 8, 15, 12, 7, 13, 11, 8, 15, 14, 14, 14, 7, 4, 23, 21, 21, 8, 4, 3, 14, 8, 2, 23, 19, 12, 28, 24, 22, 23, 19, 14, 14, 12, 11, 17, 9, 8, 14, 13, 13, 4, 3, 3, 24, 20, 17, 18, 17, 13, 20, 17, 17, 24, 23, 23, 15, 10, 8, 24, 22, 18, 18, 12, 11, 19, 13, 6, 11, 9, 5, 11, 10, 10, 15, 10, 4, 28, 16, 11, 10, 10, 9, 28, 18, 18, 23, 14, 7
 |17, 17, 15, 18, 16, 14, 19, 15, 10, 20, 14, 4, 28, 21, 18, 23, 21, 16, 15, 9, 9, 9, 7, 7, 7, 3, 1, 25, 24, 24, 20, 20, 20, 22, 17, 14, 9, 8, 8, 8, 5, 5, 3, 3, 3, 20, 15, 14, 26, 21, 18, 27, 13, 9, 17, 11, 8, 11, 11, 11, 13, 13, 6, 21, 19, 13, 3, 3, 2, 13, 10, 9, 19, 15, 14, 21, 19, 17, 20, 20, 13, 27, 27, 26, 18, 14, 11, 29, 25, 23, 27, 21, 7, 29, 27, 27, 19, 13, 9, 17, 16, 16, 20, 18, 10, 22, 21, 18, 25, 20, 12, 16, 7, 5, 18, 13, 10, 19, 18, 18, 4, 3, 2, 26, 22, 18, 11, 9, 8, 11, 7, 3, 25, 19, 17, 22, 13, 6, 22, 12, 7, 19, 12, 8, 25, 23, 21, 21, 12, 1, 25, 13, 8, 25, 25, 25, 11, 10, 10, 20, 10, 5, 19, 15, 14, 30, 28, 28, 21, 19, 16, 4, 4, 4, 9, 7, 5, 28, 22, 19, 20, 10, 5, 23, 15, 7, 19, 17, 14, 12, 10, 2, 21, 16, 13, 12, 6, 1, 11, 7, 2, 13, 7, 2, 17, 17, 13, 9, 9, 9, 18, 18, 17, 22, 16, 13, 24, 23, 23, 27, 27, 27, 20, 17, 12, 23, 22, 22, 19, 11, 5, 8, 6, 5, 17, 10, 6, 9, 8, 7, 17, 13, 5, 17, 11, 5, 9, 9, 9, 26, 25, 23, 29, 26, 24, 26, 24, 21, 21, 15, 6, 20, 15, 9, 10, 7, 3, 18, 16, 15, 19, 17, 14, 16, 11, 9, 24, 24, 24, 16, 13, 10, 29, 19, 11, 19, 17, 14, 9, 8, 7, 6, 4, 4, 20, 16, 12, 14, 9, 8|];